Total weight: 1307.5
Route 1: 0 2 6 8 46 5 3 1 4 45 7 60 0 
Route 2: 0 53 12 14 47 17 16 15 11 10 0 
Route 3: 0 19 49 21 18 25 23 48 64 0 
Route 4: 0 50 31 29 27 26 28 30 34 32 33 0 
Route 5: 0 61 44 39 38 36 35 37 40 43 42 0 
Route 6: 0 90 55 100 70 68 0 
Route 7: 0 65 99 52 57 24 22 20 0 
Route 8: 0 83 77 58 75 97 13 9 0 
Route 9: 0 95 84 51 56 66 91 80 0 
Route 10: 0 41 72 71 93 94 96 54 81 0 
Route 11: 0 69 98 88 79 73 78 0 
Route 12: 0 82 87 59 74 86 0 
Route 13: 0 92 67 62 85 63 89 76 0 
